Route #1: 51 34 16 11 3 6 42 7 26 
Route #2: 10 48 57 28 22 30 37 55 47 41 
Route #3: 44 33 27 5 23 13 14 
Route #4: 18 58 53 32 12 61 29 40 
Route #5: 39 59 
Route #6: 35 36 19 49 17 2 45 
Route #7: 15 8 24 20 52 
Route #8: 25 50 9 54 21 
Route #9: 56 43 31 38 46 60 4 
cost 1115.14
